
******************************************************************************
This program contains Ipopt, a library for large-scale nonlinear optimization.
 Ipopt is released as open source code under the Eclipse Public License (EPL).
         For more information visit http://projects.coin-or.org/Ipopt
******************************************************************************

This is Ipopt version 3.12.4, running with linear solver mumps.
NOTE: Other linear solvers might be more efficient (see Ipopt documentation).

Number of nonzeros in equality constraint Jacobian...:        0
Number of nonzeros in inequality constraint Jacobian.:        0
Number of nonzeros in Lagrangian Hessian.............:        0

Total number of variables............................:  1116225
                     variables with only lower bounds:        0
                variables with lower and upper bounds:        0
                     variables with only upper bounds:        0
Total number of equality constraints.................:        0
Total number of inequality constraints...............:        0
        inequality constraints with only lower bounds:        0
   inequality constraints with lower and upper bounds:        0
        inequality constraints with only upper bounds:        0

iter    objective    inf_pr   inf_du lg(mu)  ||d||  lg(rg) alpha_du alpha_pr  ls
   0 4.3834854e+000 0.00e+000 9.32e-001   0.0 0.00e+000    -  0.00e+000 0.00e+000   0
   1 4.3791996e+000 0.00e+000 9.21e-001 -11.0 9.32e-001    -  1.00e+000 1.00e+000f  1
   2 4.1905074e+000 0.00e+000 1.88e-003 -11.0 8.54e+001    -  1.00e+000 1.00e+000f  1
   3 4.1905071e+000 0.00e+000 1.15e-004 -11.0 1.73e-001    -  1.00e+000 1.00e+000f  1
   4 4.1905071e+000 0.00e+000 5.00e-007 -11.0 1.12e-002    -  1.00e+000 1.00e+000f  1
   5 4.1905071e+000 0.00e+000 4.69e-007 -11.0 4.81e-005    -  1.00e+000 6.25e-002f  5
   6 4.1905071e+000 0.00e+000 4.62e-007 -11.0 4.57e-005    -  1.00e+000 1.56e-002f  7
   7 4.1905071e+000 0.00e+000 4.62e-007 -11.0 4.50e-005    -  1.00e+000 6.10e-005f 15
   8 4.1905071e+000 0.00e+000 4.62e-007 -11.0 4.50e-005    -  1.00e+000 1.91e-006f 20
   9 4.1905071e+000 0.00e+000 4.62e-007 -11.0 4.50e-005    -  1.00e+000 7.63e-006f 18
iter    objective    inf_pr   inf_du lg(mu)  ||d||  lg(rg) alpha_du alpha_pr  ls
  10 4.1905071e+000 0.00e+000 4.62e-007 -11.0 4.50e-005    -  1.00e+000 3.81e-006f 19
  11 4.1905071e+000 0.00e+000 4.62e-007 -11.0 4.50e-005    -  1.00e+000 9.54e-007f 21
  12 4.1905071e+000 0.00e+000 4.62e-007 -11.0 4.52e-005    -  1.00e+000 4.77e-007f 22
  13 4.1905071e+000 0.00e+000 4.62e-007 -11.0 4.49e-005    -  1.00e+000 6.10e-005f 15
  14 4.1905071e+000 0.00e+000 4.62e-007 -11.0 4.50e-005    -  1.00e+000 2.44e-004f 13
  15 4.1905071e+000 0.00e+000 1.85e-011 -11.0 4.50e-005    -  1.00e+000 1.00e+000w  1

Number of Iterations....: 15

                                   (scaled)                 (unscaled)
Objective...............:  4.1905070600380396e+000   4.1905070600380396e+000
Dual infeasibility......:  1.8461343564979416e-011   1.8461343564979416e-011
Constraint violation....:  0.0000000000000000e+000   0.0000000000000000e+000
Complementarity.........:  0.0000000000000000e+000   0.0000000000000000e+000
Overall NLP error.......:  1.8461343564979416e-011   1.8461343564979416e-011


Number of objective function evaluations             = 201
Number of objective gradient evaluations             = 16
Number of equality constraint evaluations            = 0
Number of inequality constraint evaluations          = 0
Number of equality constraint Jacobian evaluations   = 0
Number of inequality constraint Jacobian evaluations = 0
Number of Lagrangian Hessian evaluations             = 0
Total CPU secs in IPOPT (w/o function evaluations)   =  18392.060
Total CPU secs in NLP function evaluations           =   8309.786

EXIT: Optimal Solution Found.
